p cnf 1351
-18 -424
-19 -427
-20 -430
-21 -433
-22 -436
-23 -439
-24 -442
-25 -445
-26 -448
-27 -451
-28 -454
-29 -457
-30 -460
-31 -463
-32 -466
-33 -469
-34 -472
-35 473
-36 474
-37 475
-38 476
-39 477
-40 478
-41 479
-42 480
-43 481
-44 482
-45 483
-46 484
-47 485
-48 -19
-48 -20
19 20 48
-49 -21
-49 -22
21 22 49
-50 -23
-50 -24
23 24 50
-51 -25
-51 -26
25 26 51
-52 -27
-52 -28
27 28 52
-53 -29
-53 -30
29 30 53
-54 -31
-54 -32
31 32 54
-55 -33
-55 -34
33 34 55
-56 -35
-56 -36
35 36 56
-57 -37
-57 -38
37 38 57
-58 -39
-58 -40
39 40 58
-59 -41
-59 -42
41 42 59
-60 -43
-60 -44
43 44 60
-61 -45
-61 -46
45 46 61
-62 48
-62 49
-48 -49 62
-63 50
-63 51
-50 -51 63
-64 52
-64 53
-52 -53 64
-65 54
-65 55
-54 -55 65
-66 56
-66 57
-56 -57 66
-67 58
-67 59
-58 -59 67
-68 60
-68 61
-60 -61 68
-69 62
-69 63
-62 -63 69
-70 64
-70 65
-64 -65 70
-71 66
-71 67
-66 -67 71
-72 -47
-72 68
47 -68 72
-73 69
-73 70
-69 -70 73
-74 71
-74 72
-71 -72 74
-75 73
-75 74
-73 -74 75
-76 -18
-76 19
18 -19 76
-77 18
-77 -19
-18 19 77
-78 -76
-78 -77
76 77 78
-79 18
-79 19
-18 -19 79
-80 -18
-80 -78
18 78 80
-81 18
-81 78
-18 -78 81
-82 -80
-82 -81
80 81 82
-83 18
-83 -78
-18 78 83
-84 -79
-84 -83
79 83 84
-85 -19
-85 20
19 -20 85
-86 19
-86 -20
-19 20 86
-87 -85
-87 -86
85 86 87
-88 19
-88 20
-19 -20 88
-89 84
-89 -87
-84 87 89
-90 -84
-90 87
84 -87 90
-91 -89
-91 -90
89 90 91
-92 -84
-92 -87
84 87 92
-93 -88
-93 -92
88 92 93
-94 -20
-94 21
20 -21 94
-95 20
-95 -21
-20 21 95
-96 -94
-96 -95
94 95 96
-97 20
-97 21
-20 -21 97
-98 93
-98 -96
-93 96 98
-99 -93
-99 96
93 -96 99
-100 -98
-100 -99
98 99 100
-101 -93
-101 -96
93 96 101
-102 -97
-102 -101
97 101 102
-103 -21
-103 22
21 -22 103
-104 21
-104 -22
-21 22 104
-105 -103
-105 -104
103 104 105
-106 21
-106 22
-21 -22 106
-107 102
-107 -105
-102 105 107
-108 -102
-108 105
102 -105 108
-109 -107
-109 -108
107 108 109
-110 -102
-110 -105
102 105 110
-111 -106
-111 -110
106 110 111
-112 -22
-112 23
22 -23 112
-113 22
-113 -23
-22 23 113
-114 -112
-114 -113
112 113 114
-115 22
-115 23
-22 -23 115
-116 111
-116 -114
-111 114 116
-117 -111
-117 114
111 -114 117
-118 -116
-118 -117
116 117 118
-119 -111
-119 -114
111 114 119
-120 -115
-120 -119
115 119 120
-121 -23
-121 24
23 -24 121
-122 23
-122 -24
-23 24 122
-123 -121
-123 -122
121 122 123
-124 23
-124 24
-23 -24 124
-125 120
-125 -123
-120 123 125
-126 -120
-126 123
120 -123 126
-127 -125
-127 -126
125 126 127
-128 -120
-128 -123
120 123 128
-129 -124
-129 -128
124 128 129
-130 -24
-130 25
24 -25 130
-131 24
-131 -25
-24 25 131
-132 -130
-132 -131
130 131 132
-133 24
-133 25
-24 -25 133
-134 129
-134 -132
-129 132 134
-135 -129
-135 132
129 -132 135
-136 -134
-136 -135
134 135 136
-137 -129
-137 -132
129 132 137
-138 -133
-138 -137
133 137 138
-139 -25
-139 26
25 -26 139
-140 25
-140 -26
-25 26 140
-141 -139
-141 -140
139 140 141
-142 25
-142 26
-25 -26 142
-143 138
-143 -141
-138 141 143
-144 -138
-144 141
138 -141 144
-145 -143
-145 -144
143 144 145
-146 -138
-146 -141
138 141 146
-147 -142
-147 -146
142 146 147
-148 -26
-148 27
26 -27 148
-149 26
-149 -27
-26 27 149
-150 -148
-150 -149
148 149 150
-151 26
-151 27
-26 -27 151
-152 147
-152 -150
-147 150 152
-153 -147
-153 150
147 -150 153
-154 -152
-154 -153
152 153 154
-155 -147
-155 -150
147 150 155
-156 -151
-156 -155
151 155 156
-157 -27
-157 28
27 -28 157
-158 27
-158 -28
-27 28 158
-159 -157
-159 -158
157 158 159
-160 27
-160 28
-27 -28 160
-161 156
-161 -159
-156 159 161
-162 -156
-162 159
156 -159 162
-163 -161
-163 -162
161 162 163
-164 -156
-164 -159
156 159 164
-165 -160
-165 -164
160 164 165
-166 -28
-166 29
28 -29 166
-167 28
-167 -29
-28 29 167
-168 -166
-168 -167
166 167 168
-169 28
-169 29
-28 -29 169
-170 165
-170 -168
-165 168 170
-171 -165
-171 168
165 -168 171
-172 -170
-172 -171
170 171 172
-173 -165
-173 -168
165 168 173
-174 -169
-174 -173
169 173 174
-175 -29
-175 30
29 -30 175
-176 29
-176 -30
-29 30 176
-177 -175
-177 -176
175 176 177
-178 29
-178 30
-29 -30 178
-179 174
-179 -177
-174 177 179
-180 -174
-180 177
174 -177 180
-181 -179
-181 -180
179 180 181
-182 -174
-182 -177
174 177 182
-183 -178
-183 -182
178 182 183
-184 -30
-184 31
30 -31 184
-185 30
-185 -31
-30 31 185
-186 -184
-186 -185
184 185 186
-187 30
-187 31
-30 -31 187
-188 183
-188 -186
-183 186 188
-189 -183
-189 186
183 -186 189
-190 -188
-190 -189
188 189 190
-191 -183
-191 -186
183 186 191
-192 -187
-192 -191
187 191 192
-193 -31
-193 32
31 -32 193
-194 31
-194 -32
-31 32 194
-195 -193
-195 -194
193 194 195
-196 31
-196 32
-31 -32 196
-197 192
-197 -195
-192 195 197
-198 -192
-198 195
192 -195 198
-199 -197
-199 -198
197 198 199
-200 -192
-200 -195
192 195 200
-201 -196
-201 -200
196 200 201
-202 -32
-202 33
32 -33 202
-203 32
-203 -33
-32 33 203
-204 -202
-204 -203
202 203 204
-205 32
-205 33
-32 -33 205
-206 201
-206 -204
-201 204 206
-207 -201
-207 204
201 -204 207
-208 -206
-208 -207
206 207 208
-209 -201
-209 -204
201 204 209
-210 -205
-210 -209
205 209 210
-211 -33
-211 34
33 -34 211
-212 33
-212 -34
-33 34 212
-213 -211
-213 -212
211 212 213
-214 33
-214 34
-33 -34 214
-215 210
-215 -213
-210 213 215
-216 -210
-216 213
210 -213 216
-217 -215
-217 -216
215 216 217
-218 -210
-218 -213
210 213 218
-219 -214
-219 -218
214 218 219
-220 -34
-220 35
34 -35 220
-221 34
-221 -35
-34 35 221
-222 -220
-222 -221
220 221 222
-223 34
-223 35
-34 -35 223
-224 219
-224 -222
-219 222 224
-225 -219
-225 222
219 -222 225
-226 -224
-226 -225
224 225 226
-227 -219
-227 -222
219 222 227
-228 -223
-228 -227
223 227 228
-229 -35
-229 36
35 -36 229
-230 35
-230 -36
-35 36 230
-231 -229
-231 -230
229 230 231
-232 35
-232 36
-35 -36 232
-233 228
-233 -231
-228 231 233
-234 -228
-234 231
228 -231 234
-235 -233
-235 -234
233 234 235
-236 -228
-236 -231
228 231 236
-237 -232
-237 -236
232 236 237
-238 -36
-238 37
36 -37 238
-239 36
-239 -37
-36 37 239
-240 -238
-240 -239
238 239 240
-241 36
-241 37
-36 -37 241
-242 237
-242 -240
-237 240 242
-243 -237
-243 240
237 -240 243
-244 -242
-244 -243
242 243 244
-245 -237
-245 -240
237 240 245
-246 -241
-246 -245
241 245 246
-247 -37
-247 38
37 -38 247
-248 37
-248 -38
-37 38 248
-249 -247
-249 -248
247 248 249
-250 37
-250 38
-37 -38 250
-251 246
-251 -249
-246 249 251
-252 -246
-252 249
246 -249 252
-253 -251
-253 -252
251 252 253
-254 -246
-254 -249
246 249 254
-255 -250
-255 -254
250 254 255
-256 -38
-256 39
38 -39 256
-257 38
-257 -39
-38 39 257
-258 -256
-258 -257
256 257 258
-259 38
-259 39
-38 -39 259
-260 255
-260 -258
-255 258 260
-261 -255
-261 258
255 -258 261
-262 -260
-262 -261
260 261 262
-263 -255
-263 -258
255 258 263
-264 -259
-264 -263
259 263 264
-265 -39
-265 40
39 -40 265
-266 39
-266 -40
-39 40 266
-267 -265
-267 -266
265 266 267
-268 39
-268 40
-39 -40 268
-269 264
-269 -267
-264 267 269
-270 -264
-270 267
264 -267 270
-271 -269
-271 -270
269 270 271
-272 -264
-272 -267
264 267 272
-273 -268
-273 -272
268 272 273
-274 -40
-274 41
40 -41 274
-275 40
-275 -41
-40 41 275
-276 -274
-276 -275
274 275 276
-277 40
-277 41
-40 -41 277
-278 273
-278 -276
-273 276 278
-279 -273
-279 276
273 -276 279
-280 -278
-280 -279
278 279 280
-281 -273
-281 -276
273 276 281
-282 -277
-282 -281
277 281 282
-283 -41
-283 42
41 -42 283
-284 41
-284 -42
-41 42 284
-285 -283
-285 -284
283 284 285
-286 41
-286 42
-41 -42 286
-287 282
-287 -285
-282 285 287
-288 -282
-288 285
282 -285 288
-289 -287
-289 -288
287 288 289
-290 -282
-290 -285
282 285 290
-291 -286
-291 -290
286 290 291
-292 -42
-292 43
42 -43 292
-293 42
-293 -43
-42 43 293
-294 -292
-294 -293
292 293 294
-295 42
-295 43
-42 -43 295
-296 291
-296 -294
-291 294 296
-297 -291
-297 294
291 -294 297
-298 -296
-298 -297
296 297 298
-299 -291
-299 -294
291 294 299
-300 -295
-300 -299
295 299 300
-301 -43
-301 44
43 -44 301
-302 43
-302 -44
-43 44 302
-303 -301
-303 -302
301 302 303
-304 43
-304 44
-43 -44 304
-305 300
-305 -303
-300 303 305
-306 -300
-306 303
300 -303 306
-307 -305
-307 -306
305 306 307
-308 -300
-308 -303
300 303 308
-309 -304
-309 -308
304 308 309
-310 -44
-310 45
44 -45 310
-311 44
-311 -45
-44 45 311
-312 -310
-312 -311
310 311 312
-313 44
-313 45
-44 -45 313
-314 309
-314 -312
-309 312 314
-315 -309
-315 312
309 -312 315
-316 -314
-316 -315
314 315 316
-317 -309
-317 -312
309 312 317
-318 -313
-318 -317
313 317 318
-319 -45
-319 46
45 -46 319
-320 45
-320 -46
-45 46 320
-321 -319
-321 -320
319 320 321
-322 45
-322 46
-45 -46 322
-323 318
-323 -321
-318 321 323
-324 -318
-324 321
318 -321 324
-325 -323
-325 -324
323 324 325
-326 -318
-326 -321
318 321 326
-327 -322
-327 -326
322 326 327
-328 -46
-328 47
46 -47 328
-329 46
-329 -47
-46 47 329
-330 -328
-330 -329
328 329 330
-331 46
-331 47
-46 -47 331
-332 327
-332 -330
-327 330 332
-333 -327
-333 330
327 -330 333
-334 -332
-334 -333
332 333 334
-335 -327
-335 -330
327 330 335
-336 -331
-336 -335
331 335 336
-337 18
-337 -82
-18 82 337
-338 -18
-338 20
18 -20 338
-339 -337
-339 -338
337 338 339
-340 18
-340 -91
-18 91 340
-341 -18
-341 21
18 -21 341
-342 -340
-342 -341
340 341 342
-343 18
-343 -100
-18 100 343
-344 -18
-344 22
18 -22 344
-345 -343
-345 -344
343 344 345
-346 18
-346 -109
-18 109 346
-347 -18
-347 23
18 -23 347
-348 -346
-348 -347
346 347 348
-349 18
-349 -118
-18 118 349
-350 -18
-350 24
18 -24 350
-351 -349
-351 -350
349 350 351
-352 18
-352 -127
-18 127 352
-353 -18
-353 25
18 -25 353
-354 -352
-354 -353
352 353 354
-355 18
-355 -136
-18 136 355
-356 -18
-356 26
18 -26 356
-357 -355
-357 -356
355 356 357
-358 18
-358 -145
-18 145 358
-359 -18
-359 27
18 -27 359
-360 -358
-360 -359
358 359 360
-361 18
-361 -154
-18 154 361
-362 -18
-362 28
18 -28 362
-363 -361
-363 -362
361 362 363
-364 18
-364 -163
-18 163 364
-365 -18
-365 29
18 -29 365
-366 -364
-366 -365
364 365 366
-367 18
-367 -172
-18 172 367
-368 -18
-368 30
18 -30 368
-369 -367
-369 -368
367 368 369
-370 18
-370 -181
-18 181 370
-371 -18
-371 31
18 -31 371
-372 -370
-372 -371
370 371 372
-373 18
-373 -190
-18 190 373
-374 -18
-374 32
18 -32 374
-375 -373
-375 -374
373 374 375
-376 18
-376 -199
-18 199 376
-377 -18
-377 33
18 -33 377
-378 -376
-378 -377
376 377 378
-379 18
-379 -208
-18 208 379
-380 -18
-380 34
18 -34 380
-381 -379
-381 -380
379 380 381
-382 18
-382 -217
-18 217 382
-383 -18
-383 35
18 -35 383
-384 -382
-384 -383
382 383 384
-385 18
-385 -226
-18 226 385
-386 -18
-386 36
18 -36 386
-387 -385
-387 -386
385 386 387
-388 18
-388 -235
-18 235 388
-389 -18
-389 37
18 -37 389
-390 -388
-390 -389
388 389 390
-391 18
-391 -244
-18 244 391
-392 -18
-392 38
18 -38 392
-393 -391
-393 -392
391 392 393
-394 18
-394 -253
-18 253 394
-395 -18
-395 39
18 -39 395
-396 -394
-396 -395
394 395 396
-397 18
-397 -262
-18 262 397
-398 -18
-398 40
18 -40 398
-399 -397
-399 -398
397 398 399
-400 18
-400 -271
-18 271 400
-401 -18
-401 41
18 -41 401
-402 -400
-402 -401
400 401 402
-403 18
-403 -280
-18 280 403
-404 -18
-404 42
18 -42 404
-405 -403
-405 -404
403 404 405
-406 18
-406 -289
-18 289 406
-407 -18
-407 43
18 -43 407
-408 -406
-408 -407
406 407 408
-409 18
-409 -298
-18 298 409
-410 -18
-410 44
18 -44 410
-411 -409
-411 -410
409 410 411
-412 18
-412 -307
-18 307 412
-413 -18
-413 45
18 -45 413
-414 -412
-414 -413
412 413 414
-415 18
-415 -316
-18 316 415
-416 -18
-416 46
18 -46 416
-417 -415
-417 -416
415 416 417
-418 18
-418 -325
-18 325 418
-419 -18
-419 47
18 -47 419
-420 -418
-420 -419
418 419 420
-421 18
-421 -334
-18 334 421
-422 1
-422 75
-1 -75 422
-423 -75
-423 76
75 -76 423
-424 -422
-424 -423
422 423 424
-425 2
-425 75
-2 -75 425
-426 -75
-426 -339
75 339 426
-427 -425
-427 -426
425 426 427
-428 3
-428 75
-3 -75 428
-429 -75
-429 -342
75 342 429
-430 -428
-430 -429
428 429 430
-431 4
-431 75
-4 -75 431
-432 -75
-432 -345
75 345 432
-433 -431
-433 -432
431 432 433
-434 5
-434 75
-5 -75 434
-435 -75
-435 -348
75 348 435
-436 -434
-436 -435
434 435 436
-437 6
-437 75
-6 -75 437
-438 -75
-438 -351
75 351 438
-439 -437
-439 -438
437 438 439
-440 7
-440 75
-7 -75 440
-441 -75
-441 -354
75 354 441
-442 -440
-442 -441
440 441 442
-443 8
-443 75
-8 -75 443
-444 -75
-444 -357
75 357 444
-445 -443
-445 -444
443 444 445
-446 9
-446 75
-9 -75 446
-447 -75
-447 -360
75 360 447
-448 -446
-448 -447
446 447 448
-449 10
-449 75
-10 -75 449
-450 -75
-450 -363
75 363 450
-451 -449
-451 -450
449 450 451
-452 11
-452 75
-11 -75 452
-453 -75
-453 -366
75 366 453
-454 -452
-454 -453
452 453 454
-455 12
-455 75
-12 -75 455
-456 -75
-456 -369
75 369 456
-457 -455
-457 -456
455 456 457
-458 13
-458 75
-13 -75 458
-459 -75
-459 -372
75 372 459
-460 -458
-460 -459
458 459 460
-461 14
-461 75
-14 -75 461
-462 -75
-462 -375
75 375 462
-463 -461
-463 -462
461 462 463
-464 15
-464 75
-15 -75 464
-465 -75
-465 -378
75 378 465
-466 -464
-466 -465
464 465 466
-467 16
-467 75
-16 -75 467
-468 -75
-468 -381
75 381 468
-469 -467
-469 -468
467 468 469
-470 17
-470 75
-17 -75 470
-471 -75
-471 -384
75 384 471
-472 -470
-472 -471
470 471 472
-473 -75
-473 -387
75 387 473
-474 -75
-474 -390
75 390 474
-475 -75
-475 -393
75 393 475
-476 -75
-476 -396
75 396 476
-477 -75
-477 -399
75 399 477
-478 -75
-478 -402
75 402 478
-479 -75
-479 -405
75 405 479
-480 -75
-480 -408
75 408 480
-481 -75
-481 -411
75 411 481
-482 -75
-482 -414
75 414 482
-483 -75
-483 -417
75 417 483
-484 -75
-484 -420
75 420 484
-485 -75
-485 421
75 -421 485
-486 -47
-486 336
47 -336 486
-487 18
-487 -486
-18 486 487
487
